c nIsolatedPIs 0
c maxPI 16
p cnf 83 202
c gate 17 7 -15 0
7 -17 0
-15 -17 0
-7 15 17 0
c gate 18 -7 15 0
-7 -18 0
15 -18 0
7 -15 18 0
c gate 19 -17 -18 0
-17 -19 0
-18 -19 0
17 18 19 0
c gate 20 6 -14 0
6 -20 0
-14 -20 0
-6 14 20 0
c gate 21 5 -13 0
5 -21 0
-13 -21 0
-5 13 21 0
c gate 22 -20 -21 0
-20 -22 0
-21 -22 0
20 21 22 0
c gate 23 -5 13 0
-5 -23 0
13 -23 0
5 -13 23 0
c gate 24 -1 9 0
-1 -24 0
9 -24 0
1 -9 24 0
c gate 25 1 -9 0
1 -25 0
-9 -25 0
-1 9 25 0
c gate 26 2 -10 0
2 -26 0
-10 -26 0
-2 10 26 0
c gate 27 -2 10 0
-2 -27 0
10 -27 0
2 -10 27 0
c gate 28 -26 -27 0
-26 -28 0
-27 -28 0
26 27 28 0
c gate 29 -25 28 0
-25 -29 0
28 -29 0
25 -28 29 0
c gate 30 -24 29 0
-24 -30 0
29 -30 0
24 -29 30 0
c gate 31 4 -12 0
4 -31 0
-12 -31 0
-4 12 31 0
c gate 32 -4 12 0
-4 -32 0
12 -32 0
4 -12 32 0
c gate 33 -31 -32 0
-31 -33 0
-32 -33 0
31 32 33 0
c gate 34 -3 11 0
-3 -34 0
11 -34 0
3 -11 34 0
c gate 35 3 -11 0
3 -35 0
-11 -35 0
-3 11 35 0
c gate 36 -34 -35 0
-34 -36 0
-35 -36 0
34 35 36 0
c gate 37 33 36 0
33 -37 0
36 -37 0
-33 -36 37 0
c gate 38 30 37 0
30 -38 0
37 -38 0
-30 -37 38 0
c gate 39 -27 -29 0
-27 -39 0
-29 -39 0
27 29 39 0
c gate 40 -35 -39 0
-35 -40 0
-39 -40 0
35 39 40 0
c gate 41 -34 -40 0
-34 -41 0
-40 -41 0
34 40 41 0
c gate 42 -31 -41 0
-31 -42 0
-41 -42 0
31 41 42 0
c gate 43 -32 -42 0
-32 -43 0
-42 -43 0
32 42 43 0
c gate 44 -38 -43 0
-38 -44 0
-43 -44 0
38 43 44 0
c gate 45 -23 -44 0
-23 -45 0
-44 -45 0
23 44 45 0
c gate 46 22 -45 0
22 -46 0
-45 -46 0
-22 45 46 0
c gate 47 -6 14 0
-6 -47 0
14 -47 0
6 -14 47 0
c gate 48 -8 16 0
-8 -48 0
16 -48 0
8 -16 48 0
c gate 49 8 -16 0
8 -49 0
-16 -49 0
-8 16 49 0
c gate 50 -48 -49 0
-48 -50 0
-49 -50 0
48 49 50 0
c gate 51 22 50 0
22 -51 0
50 -51 0
-22 -50 51 0
c gate 52 -23 -47 0
-23 -52 0
-47 -52 0
23 47 52 0
c gate 53 19 52 0
19 -53 0
52 -53 0
-19 -52 53 0
c gate 54 51 53 0
51 -54 0
53 -54 0
-51 -53 54 0
c gate 55 38 54 0
38 -55 0
54 -55 0
-38 -54 55 0
c gate 56 -22 -47 0
-22 -56 0
-47 -56 0
22 47 56 0
c gate 57 -17 -56 0
-17 -57 0
-56 -57 0
17 56 57 0
c gate 58 -18 -57 0
-18 -58 0
-57 -58 0
18 57 58 0
c gate 59 -49 -58 0
-49 -59 0
-58 -59 0
49 58 59 0
c gate 60 -48 -59 0
-48 -60 0
-59 -60 0
48 59 60 0
c gate 61 43 54 0
43 -61 0
54 -61 0
-43 -54 61 0
c gate 62 -60 -61 0
-60 -62 0
-61 -62 0
60 61 62 0
c gate 63 -55 -62 0
-55 -63 0
-62 -63 0
55 62 63 0
c gate 64 -47 63 0
-47 -64 0
63 -64 0
47 -63 64 0
c gate 65 -46 64 0
-46 -65 0
64 -65 0
46 -64 65 0
c gate 66 -21 -43 0
-21 -66 0
-43 -66 0
21 43 66 0
c gate 67 52 -66 0
52 -67 0
-66 -67 0
-52 66 67 0
c gate 68 -20 -67 0
-20 -68 0
-67 -68 0
20 67 68 0
c gate 69 -63 68 0
-63 -69 0
68 -69 0
63 -68 69 0
c gate 70 -65 -69 0
-65 -70 0
-69 -70 0
65 69 70 0
c gate 71 19 -70 0
19 -71 0
-70 -71 0
-19 70 71 0
c gate 72 -19 70 0
-19 -72 0
70 -72 0
19 -70 72 0
c gate 73 -71 -72 0
-71 -73 0
-72 -73 0
71 72 73 0
c gate 74 -56 60 0
-56 -74 0
60 -74 0
56 -60 74 0
c gate 75 -47 -60 0
-47 -75 0
-60 -75 0
47 60 75 0
c gate 76 43 75 0
43 -76 0
75 -76 0
-43 -75 76 0
c gate 77 -74 -76 0
-74 -77 0
-76 -77 0
74 76 77 0
c gate 78 19 -77 0
19 -78 0
-77 -78 0
-19 77 78 0
c gate 79 -19 77 0
-19 -79 0
77 -79 0
19 -77 79 0
c gate 80 -78 -79 0
-78 -80 0
-79 -80 0
78 79 80 0
c gate 81 -73 -80 0
-73 -81 0
-80 -81 0
73 80 81 0
c gate 82 73 80 0
73 -82 0
80 -82 0
-73 -80 82 0
c gate 83 -81 -82 0
-81 -83 0
-82 -83 0
81 82 83 0
c PO
-83 0
